0001 1
0002 18
0003 1
0004 1
0005 22
0006 20
0007 24
0008 7
0009 7
0010 7
0011 21
0012 8
0013 23
0014 2
0015 8
0016 24
0017 8
0018 12
0019 13
0020 12
0021 12
0022 5
0023 5
0024 5
0025 12
0026 3
0027 6
0028 9
0029 9
0030 21
0031 23
0032 18
0033 10
0034 2
0035 12
0036 10
0037 10
0038 15
0039 6
0040 13
0041 23
0042 24
0043 17
0044 18
0045 8
0046 14
0047 10
0048 24
0049 1
0050 4
0051 24
0052 10
0053 6
0054 13
0055 12
0056 24
0057 5
0058 7
0059 16
0060 14
0061 14
0062 18
0063 8
0064 13
0065 14
0066 14
0067 18
0068 13
0069 6
0070 16
0071 15
0072 16
0073 2
0074 20
0075 9
0076 3
0077 19
0078 11
0079 6
0080 6
0081 11
0082 24
0083 20
0084 10
0085 20
0086 11
0087 19
0088 19
0089 13
0090 11
0091 19
0092 4
0093 22
0094 14
0095 22
0096 21
0097 22
0098 6
0099 18
0100 22
0101 4
0102 3
0103 2
0104 1
0105 4
0106 3
0107 20
0108 16
0109 8
0110 23
0111 3
0112 20
0113 22
0114 8
0115 3
0116 3
0117 3
0118 22
0119 17
0120 4
0121 4
0122 22
0123 4
0124 20
0125 17
0126 24
0127 24
0128 24
0129 12
0130 19
0131 3
0132 2
0133 13
0134 18
0135 24
0136 19
0137 14
0138 11
0139 22
0140 10
0141 18
0142 17
0143 17
0144 6
0145 23
0146 24
0147 23
0148 2
0149 22
0150 17
0151 2
0152 9
0153 21
0154 21
0155 9
0156 18
0157 9
0158 19
0159 1
0160 1
0161 15
0162 14
0163 17
0164 15
0165 23
0166 15
0167 10
0168 22
0169 24
0170 12
0171 22
0172 1
0173 16
0174 1
0175 15
0176 1
0177 24
0178 1
0179 15
0180 15
0181 8
0182 24
0183 21
0184 21
0185 8
0186 22
0187 1
0188 22
0189 8
0190 15
